p cnf 235
-4 -74
-5 -77
-6 -80
-7 81
-8 82
-9 83
-10 -5
-10 -6
5 6 10
-11 -7
-11 -8
7 8 11
-12 10
-12 11
-10 -11 12
-13 -9
-13 12
9 -12 13
-14 -4
-14 5
4 -5 14
-15 4
-15 -5
-4 5 15
-16 -14
-16 -15
14 15 16
-17 4
-17 5
-4 -5 17
-18 -4
-18 -16
4 16 18
-19 4
-19 16
-4 -16 19
-20 -18
-20 -19
18 19 20
-21 4
-21 -16
-4 16 21
-22 -17
-22 -21
17 21 22
-23 -5
-23 6
5 -6 23
-24 5
-24 -6
-5 6 24
-25 -23
-25 -24
23 24 25
-26 5
-26 6
-5 -6 26
-27 22
-27 -25
-22 25 27
-28 -22
-28 25
22 -25 28
-29 -27
-29 -28
27 28 29
-30 -22
-30 -25
22 25 30
-31 -26
-31 -30
26 30 31
-32 -6
-32 7
6 -7 32
-33 6
-33 -7
-6 7 33
-34 -32
-34 -33
32 33 34
-35 6
-35 7
-6 -7 35
-36 31
-36 -34
-31 34 36
-37 -31
-37 34
31 -34 37
-38 -36
-38 -37
36 37 38
-39 -31
-39 -34
31 34 39
-40 -35
-40 -39
35 39 40
-41 -7
-41 8
7 -8 41
-42 7
-42 -8
-7 8 42
-43 -41
-43 -42
41 42 43
-44 7
-44 8
-7 -8 44
-45 40
-45 -43
-40 43 45
-46 -40
-46 43
40 -43 46
-47 -45
-47 -46
45 46 47
-48 -40
-48 -43
40 43 48
-49 -44
-49 -48
44 48 49
-50 -8
-50 9
8 -9 50
-51 8
-51 -9
-8 9 51
-52 -50
-52 -51
50 51 52
-53 8
-53 9
-8 -9 53
-54 49
-54 -52
-49 52 54
-55 -49
-55 52
49 -52 55
-56 -54
-56 -55
54 55 56
-57 -49
-57 -52
49 52 57
-58 -53
-58 -57
53 57 58
-59 4
-59 -20
-4 20 59
-60 -4
-60 6
4 -6 60
-61 -59
-61 -60
59 60 61
-62 4
-62 -29
-4 29 62
-63 -4
-63 7
4 -7 63
-64 -62
-64 -63
62 63 64
-65 4
-65 -38
-4 38 65
-66 -4
-66 8
4 -8 66
-67 -65
-67 -66
65 66 67
-68 4
-68 -47
-4 47 68
-69 -4
-69 9
4 -9 69
-70 -68
-70 -69
68 69 70
-71 4
-71 -56
-4 56 71
-72 1
-72 13
-1 -13 72
-73 -13
-73 14
13 -14 73
-74 -72
-74 -73
72 73 74
-75 2
-75 13
-2 -13 75
-76 -13
-76 -61
13 61 76
-77 -75
-77 -76
75 76 77
-78 3
-78 13
-3 -13 78
-79 -13
-79 -64
13 64 79
-80 -78
-80 -79
78 79 80
-81 -13
-81 -67
13 67 81
-82 -13
-82 -70
13 70 82
-83 -13
-83 71
13 -71 83
-84 -9
-84 58
9 -58 84
-85 4
-85 -84
-4 84 85
85
